2402.36
0 15 129 163 3 7 114 73 150 136 121 109 143 135 152 162 32 72 28 115 104 167 85 110 21 159 39 41 64 5 92 173 36 131 30 154 29 168 118 90 83 38 145 130 137 147 59 76 166 106 74 43 117 169 171 49 14 84 99 35 26 81 69 93 44 2 103 77 80 63 13 138 40 142 47 133 65 9 111 79 45 20 23 22 126 17 151 122 50 113 62 86 61 101 42 161 149 128 165 160 95 158 155 89 141 60 119 140 100 157 75 18 170 37 10 27 139 48 87 94 1 11 146 53 124 12 34 148 8 98 174 24 4 6 91 78 51 16 125 57 54 67 132 127 172 153 46 52 88 33 112 107 164 97 144 156 105 31 71 68 70 25 102 55 96 116 19 58 82 134 66 108 120 56 123
